benchmarks_CP/INST_64x64/50/inst64x64_50_78.dzn
S=8;
start=[|
49,	-1,	5,	34,	-1,	25,	10,	20,	-1,	44,	38,	-1,	-1,	29,	-1,	47,	23,	28,	57,	59,	8,	-1,	52,	-1,	51,	53,	-1,	-1,	24,	-1,	-1,	16,	56,	-1,	43,	-1,	-1,	40,	58,	6,	63,	-1,	-1,	54,	-1,	-1,	4,	21,	62,	-1,	13,	7,	60,	-1,	36,	17,	-1,	2,	9,	3,	-1,	-1,	-1,	46|
37,	59,	-1,	-1,	-1,	9,	-1,	17,	24,	-1,	-1,	2,	40,	56,	57,	-1,	19,	-1,	-1,	-1,	-1,	-1,	-1,	20,	-1,	47,	30,	46,	50,	-1,	8,	23,	-1,	-1,	-1,	-1,	-1,	28,	-1,	-1,	26,	-1,	29,	-1,	-1,	-1,	-1,	14,	-1,	39,	-1,	49,	-1,	11,	52,	61,	-1,	-1,	33,	25,	-1,	-1,	-1,	-1|
30,	2,	-1,	35,	-1,	11,	27,	-1,	10,	-1,	7,	-1,	-1,	-1,	58,	-1,	4,	-1,	17,	29,	-1,	64,	-1,	-1,	-1,	56,	63,	59,	-1,	-1,	-1,	48,	-1,	9,	-1,	13,	-1,	21,	-1,	-1,	-1,	-1,	20,	-1,	-1,	3,	-1,	-1,	-1,	-1,	-1,	-1,	-1,	-1,	-1,	-1,	-1,	-1,	28,	-1,	-1,	39,	-1,	16|
38,	-1,	64,	22,	-1,	57,	-1,	-1,	-1,	13,	-1,	16,	60,	35,	-1,	-1,	14,	25,	-1,	54,	36,	-1,	56,	-1,	3,	-1,	26,	-1,	-1,	39,	-1,	-1,	-1,	-1,	-1,	-1,	-1,	-1,	12,	5,	28,	51,	15,	41,	34,	37,	11,	24,	-1,	-1,	-1,	-1,	42,	-1,	58,	-1,	48,	-1,	17,	4,	-1,	-1,	44,	53|
6,	29,	-1,	41,	-1,	51,	-1,	39,	-1,	49,	11,	-1,	-1,	-1,	-1,	19,	2,	9,	13,	61,	45,	-1,	-1,	-1,	-1,	58,	-1,	-1,	4,	27,	14,	38,	-1,	-1,	36,	-1,	-1,	-1,	-1,	57,	47,	-1,	-1,	-1,	-1,	-1,	10,	17,	25,	-1,	-1,	-1,	40,	-1,	16,	-1,	-1,	31,	7,	-1,	-1,	63,	-1,	35|
-1,	-1,	45,	21,	-1,	-1,	58,	-1,	-1,	34,	-1,	48,	27,	-1,	14,	-1,	-1,	55,	22,	16,	39,	-1,	24,	62,	6,	-1,	11,	-1,	15,	-1,	9,	-1,	33,	-1,	-1,	-1,	31,	30,	-1,	-1,	-1,	36,	50,	-1,	44,	-1,	19,	-1,	-1,	-1,	-1,	-1,	53,	-1,	-1,	-1,	-1,	5,	-1,	59,	-1,	-1,	57,	54|
3,	50,	61,	55,	36,	-1,	-1,	47,	-1,	42,	-1,	-1,	63,	-1,	-1,	-1,	58,	53,	-1,	46,	11,	38,	-1,	1,	-1,	13,	-1,	-1,	33,	-1,	29,	-1,	16,	62,	44,	17,	25,	-1,	48,	20,	56,	39,	-1,	-1,	9,	30,	6,	35,	57,	51,	-1,	-1,	-1,	-1,	-1,	-1,	-1,	23,	37,	-1,	49,	24,	21,	-1|
-1,	-1,	-1,	-1,	-1,	-1,	-1,	16,	39,	-1,	-1,	-1,	-1,	-1,	-1,	-1,	30,	-1,	-1,	21,	-1,	48,	63,	-1,	-1,	-1,	35,	49,	-1,	-1,	-1,	-1,	-1,	-1,	22,	-1,	52,	-1,	-1,	-1,	1,	-1,	27,	33,	38,	46,	-1,	-1,	-1,	-1,	3,	-1,	-1,	-1,	-1,	28,	13,	64,	18,	-1,	36,	29,	-1,	-1|
2,	14,	-1,	-1,	-1,	36,	-1,	63,	29,	1,	59,	-1,	34,	-1,	42,	31,	-1,	40,	46,	47,	-1,	-1,	50,	-1,	-1,	-1,	37,	32,	39,	9,	38,	6,	10,	-1,	7,	-1,	19,	-1,	5,	24,	-1,	61,	22,	35,	3,	-1,	45,	11,	-1,	-1,	-1,	-1,	27,	-1,	-1,	-1,	-1,	-1,	-1,	-1,	52,	-1,	-1,	-1|
59,	20,	27,	16,	-1,	44,	-1,	57,	13,	40,	3,	19,	-1,	6,	-1,	-1,	-1,	-1,	29,	-1,	-1,	-1,	33,	-1,	-1,	-1,	25,	11,	-1,	60,	-1,	-1,	-1,	-1,	42,	-1,	-1,	45,	-1,	-1,	39,	-1,	32,	-1,	-1,	-1,	12,	37,	51,	-1,	58,	-1,	-1,	-1,	31,	-1,	-1,	-1,	-1,	-1,	9,	-1,	-1,	-1|
-1,	61,	29,	-1,	40,	64,	23,	-1,	26,	-1,	-1,	-1,	24,	-1,	28,	-1,	-1,	-1,	-1,	-1,	16,	63,	17,	54,	33,	-1,	-1,	-1,	-1,	51,	49,	-1,	-1,	-1,	-1,	-1,	59,	-1,	-1,	60,	48,	-1,	-1,	9,	7,	-1,	30,	-1,	-1,	32,	-1,	39,	15,	36,	-1,	22,	37,	-1,	-1,	47,	5,	-1,	-1,	25|
-1,	-1,	-1,	-1,	-1,	-1,	56,	-1,	62,	60,	-1,	-1,	7,	10,	-1,	-1,	-1,	13,	-1,	-1,	-1,	-1,	-1,	9,	59,	54,	29,	2,	-1,	-1,	22,	53,	3,	-1,	32,	-1,	-1,	-1,	-1,	1,	58,	-1,	-1,	-1,	-1,	6,	-1,	-1,	35,	5,	49,	-1,	52,	-1,	18,	-1,	-1,	-1,	31,	-1,	-1,	8,	-1,	39|
7,	60,	26,	-1,	-1,	-1,	-1,	32,	46,	45,	-1,	-1,	21,	52,	-1,	41,	42,	-1,	53,	25,	-1,	-1,	18,	37,	-1,	15,	3,	-1,	36,	-1,	55,	-1,	-1,	20,	-1,	12,	-1,	62,	29,	-1,	10,	-1,	57,	-1,	31,	-1,	-1,	33,	-1,	16,	4,	-1,	47,	-1,	-1,	54,	-1,	24,	-1,	-1,	17,	-1,	-1,	11|
35,	-1,	-1,	9,	-1,	-1,	17,	31,	22,	8,	39,	15,	44,	-1,	-1,	-1,	45,	64,	32,	-1,	-1,	23,	-1,	-1,	40,	-1,	-1,	62,	-1,	61,	-1,	-1,	-1,	-1,	-1,	-1,	-1,	33,	-1,	48,	-1,	13,	-1,	-1,	-1,	-1,	50,	-1,	6,	60,	-1,	-1,	34,	-1,	63,	-1,	42,	4,	59,	-1,	-1,	54,	-1,	21|
45,	-1,	3,	-1,	-1,	-1,	24,	-1,	64,	55,	33,	56,	-1,	54,	-1,	43,	-1,	-1,	39,	-1,	-1,	21,	12,	15,	30,	-1,	18,	41,	-1,	-1,	23,	-1,	-1,	11,	-1,	-1,	-1,	9,	27,	-1,	17,	-1,	47,	-1,	5,	-1,	-1,	25,	-1,	-1,	42,	-1,	29,	48,	59,	-1,	16,	-1,	-1,	-1,	-1,	32,	40,	-1|
-1,	8,	-1,	-1,	-1,	-1,	-1,	34,	51,	-1,	-1,	-1,	-1,	-1,	-1,	23,	-1,	-1,	59,	62,	-1,	-1,	41,	10,	7,	52,	-1,	58,	57,	42,	35,	-1,	-1,	-1,	-1,	-1,	-1,	-1,	-1,	49,	44,	26,	-1,	-1,	54,	27,	36,	60,	-1,	-1,	-1,	64,	61,	-1,	11,	-1,	33,	3,	20,	-1,	-1,	-1,	-1,	-1|
18,	16,	-1,	20,	-1,	-1,	-1,	-1,	-1,	5,	-1,	3,	15,	14,	-1,	27,	37,	-1,	25,	19,	-1,	22,	32,	58,	39,	41,	-1,	40,	-1,	-1,	1,	-1,	29,	43,	34,	62,	7,	36,	-1,	42,	-1,	-1,	44,	-1,	-1,	-1,	-1,	28,	47,	-1,	55,	-1,	-1,	26,	21,	35,	6,	-1,	52,	53,	-1,	12,	-1,	59|
23,	-1,	53,	-1,	-1,	-1,	-1,	6,	-1,	-1,	45,	-1,	-1,	64,	18,	50,	57,	61,	12,	-1,	7,	-1,	4,	-1,	8,	20,	-1,	-1,	11,	-1,	17,	-1,	-1,	-1,	-1,	21,	22,	-1,	37,	-1,	51,	49,	-1,	-1,	-1,	52,	-1,	10,	-1,	-1,	60,	36,	58,	2,	-1,	43,	3,	-1,	-1,	35,	-1,	56,	41,	-1|
52,	-1,	8,	56,	37,	-1,	9,	-1,	48,	39,	-1,	33,	58,	-1,	-1,	55,	3,	-1,	43,	-1,	26,	20,	-1,	-1,	-1,	-1,	59,	-1,	49,	-1,	-1,	36,	-1,	23,	57,	47,	-1,	35,	1,	-1,	-1,	-1,	60,	15,	-1,	-1,	-1,	-1,	-1,	-1,	28,	-1,	6,	-1,	-1,	34,	-1,	-1,	11,	38,	61,	14,	-1,	-1|
-1,	-1,	32,	-1,	-1,	-1,	-1,	-1,	-1,	-1,	57,	6,	17,	-1,	22,	-1,	-1,	16,	-1,	30,	-1,	41,	-1,	-1,	35,	-1,	60,	-1,	-1,	15,	18,	37,	12,	-1,	-1,	3,	-1,	52,	53,	26,	27,	20,	-1,	36,	-1,	59,	-1,	40,	56,	-1,	-1,	31,	-1,	-1,	49,	24,	-1,	-1,	55,	29,	-1,	4,	47,	-1|
-1,	1,	49,	-1,	38,	47,	-1,	-1,	-1,	11,	52,	-1,	-1,	43,	10,	54,	-1,	-1,	-1,	-1,	-1,	-1,	-1,	39,	22,	-1,	-1,	51,	62,	58,	-1,	14,	31,	45,	13,	9,	16,	-1,	63,	46,	32,	7,	41,	21,	-1,	56,	26,	-1,	-1,	-1,	-1,	-1,	-1,	19,	-1,	3,	44,	28,	-1,	60,	-1,	17,	-1,	20|
33,	-1,	57,	-1,	-1,	-1,	-1,	-1,	-1,	63,	16,	1,	35,	31,	37,	21,	-1,	-1,	27,	40,	56,	-1,	-1,	-1,	53,	34,	-1,	6,	42,	-1,	-1,	-1,	59,	-1,	-1,	10,	-1,	-1,	28,	41,	-1,	17,	-1,	30,	-1,	-1,	14,	64,	52,	-1,	-1,	48,	-1,	7,	4,	-1,	-1,	-1,	54,	13,	24,	-1,	-1,	-1|
19,	-1,	-1,	11,	-1,	59,	34,	14,	44,	41,	26,	51,	62,	7,	56,	53,	-1,	1,	-1,	2,	-1,	-1,	28,	-1,	10,	32,	52,	-1,	27,	-1,	3,	-1,	20,	6,	50,	-1,	-1,	60,	-1,	8,	22,	37,	12,	-1,	18,	58,	-1,	-1,	54,	-1,	-1,	40,	57,	63,	-1,	13,	-1,	42,	-1,	-1,	-1,	31,	-1,	23|
-1,	22,	55,	43,	35,	-1,	-1,	26,	-1,	23,	19,	36,	-1,	-1,	24,	-1,	52,	31,	63,	-1,	59,	-1,	-1,	-1,	-1,	-1,	-1,	13,	47,	-1,	-1,	29,	-1,	-1,	14,	4,	64,	-1,	32,	-1,	6,	5,	11,	-1,	-1,	9,	-1,	-1,	16,	46,	44,	-1,	-1,	-1,	-1,	-1,	-1,	58,	-1,	-1,	51,	21,	27,	37|
-1,	48,	19,	15,	46,	-1,	-1,	53,	31,	-1,	-1,	-1,	13,	38,	29,	34,	-1,	62,	-1,	32,	-1,	-1,	5,	-1,	25,	-1,	-1,	4,	-1,	63,	56,	8,	-1,	-1,	52,	-1,	-1,	-1,	-1,	14,	-1,	-1,	10,	-1,	58,	39,	1,	9,	42,	-1,	51,	21,	-1,	6,	61,	-1,	43,	-1,	50,	-1,	60,	26,	-1,	-1|
-1,	-1,	42,	27,	43,	-1,	11,	-1,	-1,	4,	-1,	-1,	-1,	-1,	-1,	26,	-1,	58,	-1,	44,	34,	-1,	-1,	24,	31,	-1,	-1,	36,	-1,	14,	57,	64,	32,	-1,	-1,	35,	54,	29,	-1,	-1,	-1,	40,	-1,	52,	37,	-1,	-1,	7,	3,	49,	-1,	59,	-1,	-1,	56,	38,	10,	45,	-1,	-1,	-1,	-1,	-1,	61|
-1,	-1,	39,	-1,	-1,	-1,	25,	-1,	-1,	-1,	62,	-1,	-1,	-1,	-1,	2,	-1,	45,	28,	60,	61,	-1,	-1,	-1,	15,	48,	38,	9,	-1,	-1,	-1,	17,	40,	33,	37,	56,	55,	16,	-1,	-1,	-1,	63,	13,	57,	-1,	18,	47,	-1,	64,	34,	5,	50,	-1,	32,	-1,	-1,	46,	54,	-1,	-1,	6,	-1,	53,	29|
63,	-1,	-1,	5,	4,	-1,	-1,	-1,	-1,	57,	32,	-1,	42,	-1,	8,	61,	13,	-1,	52,	-1,	14,	2,	6,	59,	-1,	-1,	-1,	35,	46,	-1,	34,	-1,	53,	-1,	15,	50,	38,	-1,	60,	-1,	16,	-1,	49,	-1,	17,	-1,	22,	54,	-1,	40,	-1,	44,	-1,	-1,	-1,	26,	-1,	9,	-1,	48,	31,	36,	-1,	27|
-1,	54,	-1,	49,	-1,	-1,	31,	-1,	-1,	35,	-1,	-1,	-1,	-1,	39,	9,	-1,	46,	48,	11,	-1,	-1,	-1,	-1,	13,	24,	-1,	3,	-1,	33,	-1,	10,	-1,	30,	-1,	-1,	-1,	-1,	-1,	-1,	-1,	32,	-1,	-1,	-1,	45,	-1,	8,	-1,	-1,	-1,	22,	-1,	-1,	-1,	12,	21,	-1,	62,	16,	57,	20,	7,	44|
-1,	37,	58,	59,	-1,	-1,	28,	-1,	-1,	12,	-1,	-1,	-1,	18,	-1,	-1,	49,	-1,	20,	53,	-1,	57,	-1,	21,	19,	2,	22,	-1,	-1,	-1,	32,	-1,	11,	10,	25,	43,	27,	-1,	39,	-1,	3,	-1,	6,	-1,	36,	50,	46,	-1,	23,	-1,	48,	17,	-1,	29,	-1,	-1,	30,	-1,	-1,	-1,	8,	-1,	51,	-1|
47,	-1,	36,	2,	-1,	-1,	30,	29,	27,	54,	-1,	40,	-1,	53,	19,	20,	25,	-1,	-1,	38,	-1,	7,	8,	16,	50,	-1,	49,	-1,	37,	45,	58,	28,	4,	46,	-1,	6,	13,	23,	-1,	9,	-1,	48,	14,	61,	-1,	5,	51,	26,	-1,	-1,	31,	52,	1,	-1,	-1,	39,	32,	-1,	-1,	-1,	-1,	42,	11,	-1|
-1,	-1,	38,	-1,	3,	-1,	45,	-1,	21,	48,	-1,	-1,	-1,	33,	60,	-1,	9,	-1,	51,	-1,	-1,	-1,	-1,	-1,	-1,	40,	-1,	-1,	-1,	-1,	-1,	52,	-1,	-1,	31,	-1,	-1,	7,	-1,	-1,	43,	30,	-1,	-1,	-1,	-1,	-1,	-1,	-1,	54,	27,	-1,	-1,	-1,	46,	-1,	-1,	-1,	-1,	-1,	-1,	37,	-1,	-1|
36,	4,	21,	60,	62,	42,	-1,	48,	-1,	14,	5,	-1,	-1,	-1,	34,	7,	-1,	-1,	6,	31,	-1,	-1,	19,	41,	-1,	-1,	-1,	24,	-1,	18,	-1,	-1,	27,	13,	-1,	52,	-1,	12,	51,	37,	61,	-1,	-1,	-1,	43,	20,	57,	1,	-1,	-1,	40,	58,	-1,	44,	-1,	56,	38,	-1,	-1,	54,	16,	11,	-1,	17|
-1,	-1,	-1,	39,	27,	-1,	1,	55,	-1,	-1,	-1,	-1,	4,	-1,	53,	29,	-1,	-1,	8,	13,	-1,	56,	-1,	-1,	42,	28,	41,	-1,	-1,	59,	16,	5,	57,	31,	33,	-1,	21,	-1,	-1,	38,	50,	9,	26,	-1,	40,	-1,	-1,	6,	10,	48,	-1,	51,	49,	25,	-1,	-1,	12,	-1,	46,	-1,	-1,	64,	58,	-1|
-1,	32,	-1,	-1,	44,	14,	43,	-1,	-1,	-1,	56,	10,	-1,	-1,	64,	-1,	33,	42,	-1,	17,	27,	16,	58,	-1,	47,	-1,	-1,	-1,	53,	-1,	-1,	-1,	8,	-1,	55,	45,	3,	24,	-1,	2,	21,	-1,	-1,	-1,	-1,	36,	5,	22,	-1,	6,	57,	34,	-1,	31,	62,	-1,	63,	-1,	-1,	52,	-1,	-1,	-1,	-1|
24,	-1,	-1,	-1,	-1,	-1,	5,	-1,	37,	-1,	27,	17,	36,	-1,	44,	40,	48,	-1,	14,	-1,	-1,	-1,	64,	38,	23,	7,	58,	-1,	-1,	21,	-1,	12,	50,	-1,	56,	-1,	-1,	25,	16,	32,	53,	-1,	-1,	47,	63,	10,	8,	62,	39,	18,	1,	-1,	-1,	52,	-1,	-1,	26,	-1,	45,	22,	-1,	-1,	4,	51|
64,	52,	-1,	-1,	-1,	50,	51,	2,	42,	-1,	-1,	-1,	6,	-1,	35,	57,	1,	49,	7,	-1,	-1,	-1,	34,	18,	14,	37,	-1,	33,	44,	-1,	62,	13,	9,	36,	-1,	-1,	-1,	-1,	30,	-1,	-1,	-1,	25,	-1,	56,	17,	-1,	-1,	19,	-1,	8,	-1,	-1,	-1,	3,	-1,	-1,	20,	43,	21,	53,	41,	-1,	40|
34,	-1,	-1,	10,	-1,	12,	-1,	28,	-1,	-1,	-1,	-1,	-1,	9,	-1,	-1,	-1,	3,	36,	63,	40,	-1,	-1,	-1,	-1,	-1,	45,	-1,	-1,	-1,	25,	32,	-1,	48,	20,	59,	-1,	-1,	-1,	-1,	37,	-1,	42,	-1,	-1,	-1,	-1,	49,	7,	35,	64,	-1,	-1,	5,	41,	23,	8,	27,	14,	50,	33,	-1,	61,	24|
53,	40,	25,	7,	47,	-1,	-1,	-1,	-1,	61,	58,	-1,	11,	13,	-1,	-1,	-1,	39,	4,	24,	21,	-1,	55,	-1,	-1,	36,	-1,	-1,	-1,	52,	60,	-1,	1,	22,	62,	-1,	6,	26,	-1,	64,	29,	-1,	23,	-1,	51,	-1,	31,	-1,	20,	-1,	12,	-1,	16,	27,	17,	-1,	5,	44,	10,	56,	42,	48,	18,	2|
41,	9,	-1,	58,	-1,	23,	49,	19,	43,	-1,	-1,	32,	-1,	51,	15,	16,	26,	-1,	-1,	-1,	5,	62,	-1,	25,	-1,	61,	31,	39,	-1,	20,	-1,	-1,	14,	42,	-1,	60,	-1,	47,	-1,	7,	-1,	-1,	-1,	-1,	27,	-1,	34,	18,	38,	-1,	-1,	2,	21,	-1,	45,	-1,	57,	-1,	-1,	1,	37,	28,	3,	55|
-1,	-1,	-1,	32,	33,	35,	39,	-1,	-1,	43,	-1,	60,	29,	-1,	30,	-1,	-1,	-1,	64,	-1,	24,	-1,	-1,	6,	-1,	-1,	48,	50,	20,	17,	-1,	15,	2,	12,	-1,	-1,	9,	-1,	44,	22,	-1,	45,	21,	10,	59,	-1,	-1,	47,	26,	11,	16,	5,	-1,	28,	13,	1,	34,	41,	-1,	42,	-1,	-1,	-1,	-1|
-1,	-1,	-1,	-1,	15,	-1,	64,	62,	-1,	7,	-1,	-1,	-1,	-1,	55,	5,	-1,	-1,	-1,	-1,	43,	-1,	57,	60,	63,	-1,	6,	37,	38,	-1,	-1,	33,	-1,	61,	21,	-1,	-1,	-1,	-1,	-1,	40,	22,	54,	-1,	-1,	-1,	56,	-1,	-1,	-1,	-1,	-1,	-1,	-1,	2,	-1,	-1,	29,	-1,	30,	-1,	-1,	-1,	-1|
-1,	44,	-1,	63,	-1,	-1,	-1,	-1,	4,	-1,	40,	-1,	-1,	47,	-1,	25,	-1,	-1,	58,	-1,	17,	30,	23,	31,	45,	-1,	39,	-1,	19,	-1,	36,	24,	54,	-1,	-1,	-1,	-1,	-1,	-1,	-1,	2,	27,	61,	28,	-1,	8,	-1,	48,	33,	-1,	-1,	3,	-1,	42,	15,	57,	-1,	-1,	64,	51,	-1,	59,	-1,	18|
-1,	46,	-1,	31,	-1,	5,	61,	-1,	52,	17,	14,	45,	-1,	15,	-1,	-1,	-1,	26,	-1,	4,	9,	-1,	10,	34,	57,	-1,	8,	-1,	-1,	-1,	7,	58,	-1,	38,	-1,	-1,	42,	32,	-1,	-1,	-1,	19,	55,	-1,	-1,	-1,	23,	12,	-1,	30,	-1,	63,	-1,	39,	-1,	-1,	28,	-1,	-1,	-1,	-1,	3,	54,	1|
-1,	34,	-1,	-1,	8,	22,	-1,	43,	-1,	-1,	-1,	18,	37,	-1,	-1,	51,	12,	41,	1,	-1,	55,	-1,	20,	11,	-1,	9,	-1,	28,	56,	30,	52,	-1,	35,	64,	-1,	16,	17,	10,	23,	-1,	-1,	-1,	62,	3,	33,	-1,	-1,	-1,	-1,	61,	21,	54,	-1,	-1,	7,	25,	-1,	48,	5,	-1,	15,	60,	36,	47|
27,	-1,	59,	45,	-1,	-1,	54,	-1,	53,	58,	-1,	-1,	-1,	24,	26,	64,	-1,	-1,	16,	22,	-1,	13,	-1,	3,	5,	12,	46,	-1,	61,	-1,	44,	31,	-1,	60,	11,	-1,	-1,	-1,	52,	33,	9,	6,	-1,	17,	-1,	-1,	20,	63,	-1,	-1,	19,	-1,	14,	51,	-1,	-1,	-1,	-1,	35,	39,	56,	-1,	-1,	-1|
-1,	42,	7,	-1,	19,	-1,	47,	-1,	-1,	9,	-1,	-1,	38,	21,	36,	-1,	-1,	63,	15,	-1,	62,	14,	44,	2,	-1,	-1,	1,	16,	-1,	25,	26,	60,	-1,	3,	30,	-1,	-1,	-1,	46,	45,	35,	-1,	5,	-1,	57,	-1,	-1,	51,	27,	64,	-1,	-1,	-1,	-1,	-1,	40,	24,	-1,	-1,	-1,	13,	-1,	43,	31|
40,	-1,	-1,	30,	49,	-1,	-1,	25,	-1,	6,	28,	-1,	-1,	-1,	11,	13,	8,	-1,	-1,	-1,	-1,	-1,	-1,	61,	27,	-1,	14,	42,	34,	3,	54,	-1,	51,	-1,	-1,	-1,	1,	-1,	19,	-1,	24,	-1,	64,	44,	60,	43,	37,	41,	29,	-1,	-1,	45,	-1,	-1,	-1,	-1,	17,	7,	57,	-1,	-1,	22,	-1,	-1|
-1,	-1,	2,	25,	-1,	-1,	36,	64,	-1,	-1,	53,	24,	-1,	-1,	7,	1,	62,	30,	60,	-1,	-1,	-1,	-1,	23,	11,	43,	-1,	-1,	5,	16,	21,	20,	46,	-1,	-1,	-1,	-1,	-1,	10,	15,	-1,	55,	-1,	18,	-1,	42,	-1,	29,	9,	-1,	-1,	-1,	39,	61,	6,	-1,	-1,	-1,	-1,	44,	-1,	45,	32,	-1|
-1,	-1,	-1,	8,	-1,	32,	-1,	5,	12,	46,	-1,	21,	30,	45,	-1,	38,	34,	-1,	2,	-1,	25,	-1,	-1,	-1,	44,	-1,	28,	-1,	-1,	56,	-1,	-1,	-1,	-1,	9,	-1,	49,	-1,	-1,	52,	-1,	-1,	-1,	26,	19,	57,	-1,	36,	-1,	-1,	-1,	4,	-1,	-1,	-1,	10,	-1,	60,	1,	33,	54,	-1,	-1,	-1|
21,	26,	-1,	-1,	16,	-1,	-1,	42,	-1,	22,	61,	-1,	-1,	-1,	23,	32,	-1,	27,	37,	-1,	-1,	-1,	59,	-1,	4,	45,	2,	-1,	3,	8,	-1,	-1,	48,	53,	-1,	-1,	20,	56,	-1,	31,	-1,	-1,	-1,	-1,	52,	54,	-1,	39,	-1,	38,	-1,	-1,	-1,	1,	50,	47,	36,	11,	-1,	-1,	-1,	-1,	-1,	-1|
-1,	23,	-1,	33,	-1,	48,	-1,	-1,	58,	-1,	4,	-1,	52,	39,	-1,	-1,	20,	24,	54,	6,	32,	-1,	-1,	53,	-1,	-1,	-1,	-1,	-1,	-1,	46,	-1,	64,	-1,	16,	7,	-1,	-1,	3,	-1,	-1,	8,	37,	40,	10,	-1,	-1,	45,	-1,	-1,	36,	-1,	-1,	-1,	42,	-1,	61,	18,	51,	31,	27,	50,	12,	13|
-1,	-1,	37,	-1,	14,	-1,	15,	-1,	-1,	-1,	54,	55,	18,	-1,	-1,	-1,	36,	57,	49,	10,	-1,	17,	61,	-1,	-1,	26,	-1,	-1,	-1,	-1,	-1,	42,	-1,	-1,	1,	51,	33,	22,	-1,	40,	-1,	-1,	-1,	60,	28,	4,	21,	-1,	44,	12,	2,	-1,	-1,	-1,	-1,	-1,	29,	53,	-1,	6,	19,	23,	20,	-1|
-1,	-1,	60,	-1,	11,	-1,	55,	-1,	-1,	-1,	29,	44,	-1,	-1,	-1,	-1,	64,	51,	-1,	41,	-1,	15,	45,	46,	1,	39,	-1,	52,	-1,	-1,	-1,	-1,	-1,	4,	2,	-1,	-1,	5,	38,	-1,	34,	16,	35,	-1,	23,	22,	-1,	-1,	-1,	7,	-1,	53,	-1,	13,	54,	-1,	59,	-1,	-1,	-1,	3,	-1,	8,	-1|
4,	-1,	-1,	-1,	45,	46,	18,	-1,	6,	-1,	-1,	-1,	-1,	-1,	-1,	-1,	-1,	-1,	-1,	-1,	33,	42,	-1,	-1,	29,	23,	15,	-1,	10,	37,	-1,	50,	21,	39,	60,	61,	-1,	54,	36,	59,	-1,	-1,	-1,	1,	-1,	53,	-1,	32,	-1,	58,	-1,	-1,	-1,	49,	-1,	-1,	7,	-1,	-1,	63,	40,	57,	-1,	64|
22,	3,	34,	-1,	61,	-1,	-1,	24,	-1,	10,	-1,	-1,	19,	-1,	40,	33,	-1,	-1,	-1,	-1,	52,	-1,	29,	12,	-1,	49,	54,	18,	-1,	36,	-1,	59,	23,	-1,	-1,	8,	62,	-1,	-1,	-1,	-1,	11,	-1,	31,	6,	-1,	-1,	13,	-1,	-1,	46,	41,	-1,	-1,	32,	51,	-1,	16,	-1,	5,	-1,	2,	-1,	58|
-1,	43,	-1,	1,	-1,	49,	60,	27,	-1,	56,	-1,	-1,	47,	-1,	48,	4,	22,	-1,	-1,	-1,	-1,	40,	-1,	36,	-1,	-1,	33,	29,	51,	41,	-1,	-1,	-1,	-1,	45,	-1,	-1,	-1,	50,	19,	-1,	62,	-1,	-1,	26,	16,	-1,	-1,	15,	13,	35,	38,	-1,	9,	-1,	-1,	-1,	-1,	32,	55,	64,	-1,	6,	-1|
61,	-1,	-1,	-1,	-1,	-1,	-1,	59,	33,	-1,	-1,	34,	23,	-1,	-1,	-1,	60,	-1,	-1,	-1,	12,	-1,	25,	-1,	16,	-1,	-1,	38,	9,	-1,	-1,	26,	41,	-1,	-1,	20,	40,	51,	31,	3,	46,	21,	-1,	39,	50,	-1,	32,	-1,	-1,	-1,	7,	42,	37,	-1,	19,	53,	-1,	35,	-1,	45,	10,	-1,	-1,	52|
-1,	47,	-1,	54,	34,	8,	2,	-1,	11,	52,	60,	-1,	10,	-1,	-1,	49,	-1,	-1,	-1,	-1,	-1,	24,	-1,	45,	-1,	-1,	-1,	-1,	-1,	-1,	-1,	25,	-1,	-1,	-1,	-1,	56,	-1,	-1,	18,	4,	31,	-1,	-1,	48,	35,	-1,	61,	-1,	20,	26,	16,	44,	-1,	28,	46,	-1,	-1,	-1,	14,	-1,	-1,	33,	36|
-1,	57,	33,	-1,	5,	-1,	38,	52,	25,	27,	18,	-1,	61,	3,	-1,	12,	-1,	-1,	-1,	51,	-1,	28,	49,	-1,	-1,	-1,	10,	31,	60,	22,	2,	35,	44,	54,	26,	-1,	-1,	39,	-1,	16,	-1,	64,	9,	-1,	-1,	1,	29,	-1,	63,	-1,	23,	56,	-1,	58,	-1,	-1,	19,	59,	15,	11,	21,	-1,	30,	4|
-1,	-1,	14,	19,	29,	55,	-1,	-1,	40,	51,	-1,	8,	59,	-1,	-1,	-1,	-1,	54,	-1,	56,	35,	37,	-1,	32,	61,	-1,	36,	20,	7,	-1,	-1,	-1,	-1,	-1,	-1,	-1,	-1,	57,	62,	-1,	-1,	43,	24,	-1,	-1,	-1,	44,	-1,	11,	3,	50,	18,	-1,	22,	-1,	-1,	47,	26,	-1,	9,	28,	-1,	31,	49|
26,	-1,	-1,	4,	-1,	31,	-1,	-1,	-1,	21,	42,	9,	45,	-1,	16,	-1,	-1,	-1,	3,	57,	64,	-1,	14,	48,	54,	5,	-1,	-1,	40,	-1,	50,	-1,	-1,	-1,	-1,	38,	-1,	-1,	-1,	-1,	-1,	47,	52,	-1,	-1,	-1,	-1,	-1,	-1,	-1,	41,	-1,	32,	30,	-1,	49,	-1,	1,	-1,	24,	-1,	18,	34,	-1|
58,	53,	46,	-1,	41,	18,	-1,	-1,	32,	-1,	36,	-1,	-1,	-1,	-1,	-1,	-1,	59,	26,	20,	-1,	-1,	2,	50,	24,	8,	57,	-1,	6,	-1,	39,	-1,	22,	47,	-1,	49,	30,	1,	9,	-1,	-1,	-1,	38,	37,	-1,	25,	-1,	-1,	-1,	-1,	34,	-1,	-1,	-1,	-1,	48,	-1,	-1,	-1,	40,	44,	-1,	-1,	3|
39,	15,	-1,	-1,	-1,	3,	-1,	-1,	-1,	-1,	-1,	38,	26,	63,	-1,	-1,	11,	-1,	31,	-1,	41,	-1,	-1,	42,	48,	-1,	-1,	44,	-1,	34,	64,	30,	-1,	7,	-1,	29,	12,	-1,	-1,	-1,	33,	56,	18,	-1,	-1,	49,	-1,	-1,	61,	1,	-1,	47,	51,	-1,	60,	6,	-1,	-1,	16,	8,	-1,	43,	17,	57|];
