benchmarks_LEQ/INST_64x64/50/inst64x64_50_78.txt
8
1
-1	-1	-1	-1	48	25	10	20	-1	-1	38	-1	41	-1	-1	47	23	28	57	-1	8	32	-1	26	51	53	42	22	-1	19	-1	16	56	35	-1	39	-1	-1	58	6	-1	-1	45	-1	-1	61	-1	-1	-1	-1	-1	-1	-1	-1	-1	17	-1	-1	9	3	-1	27	-1	46
-1	59	-1	-1	60	9	-1	17	-1	36	-1	2	-1	-1	-1	18	19	-1	35	-1	3	-1	-1	-1	-1	47	30	46	-1	44	8	-1	-1	-1	64	54	-1	-1	-1	4	-1	58	29	-1	32	31	16	-1	-1	-1	38	-1	10	-1	-1	61	22	55	-1	-1	-1	34	42	-1
-1	-1	-1	-1	-1	-1	-1	-1	-1	25	7	46	-1	61	-1	15	-1	-1	-1	-1	-1	64	42	44	36	-1	-1	-1	1	40	37	48	-1	-1	-1	-1	-1	21	-1	-1	52	57	-1	-1	-1	3	49	53	-1	33	22	-1	-1	-1	26	-1	14	-1	28	62	45	39	-1	-1
38	-1	-1	22	-1	57	33	8	9	-1	-1	16	60	-1	1	52	14	-1	47	-1	-1	-1	-1	-1	3	-1	-1	-1	-1	-1	20	-1	-1	-1	-1	2	10	-1	-1	5	-1	-1	-1	41	-1	-1	-1	-1	46	21	6	-1	-1	-1	58	63	48	19	17	4	-1	30	44	-1
6	29	-1	-1	42	51	26	-1	-1	49	11	64	5	-1	-1	19	-1	-1	13	61	45	-1	43	33	-1	-1	-1	-1	4	-1	14	-1	-1	37	36	18	53	-1	-1	-1	-1	59	8	-1	-1	62	-1	-1	25	-1	-1	-1	-1	23	16	-1	-1	-1	7	-1	-1	63	-1	35
-1	28	-1	21	-1	-1	-1	-1	-1	-1	17	-1	-1	-1	-1	-1	-1	-1	-1	-1	39	18	-1	-1	-1	60	11	-1	15	10	9	-1	-1	-1	-1	-1	-1	30	-1	29	42	36	-1	-1	44	-1	-1	2	-1	-1	-1	12	-1	35	20	64	-1	5	-1	-1	47	61	-1	54
3	50	61	-1	36	15	32	47	-1	-1	43	-1	-1	-1	54	59	-1	-1	34	-1	-1	-1	-1	1	-1	13	12	-1	-1	-1	-1	2	16	-1	44	-1	-1	19	48	20	-1	39	7	22	-1	-1	6	-1	57	-1	18	-1	-1	-1	-1	31	-1	-1	-1	-1	49	24	21	26
44	19	24	40	-1	-1	-1	-1	-1	-1	-1	-1	51	-1	12	-1	30	-1	10	21	-1	-1	63	7	32	-1	-1	49	-1	-1	-1	41	-1	-1	-1	11	52	-1	-1	55	1	25	-1	33	-1	46	-1	5	-1	-1	3	-1	2	-1	-1	-1	13	64	-1	-1	-1	29	56	-1
2	-1	-1	-1	54	-1	-1	63	-1	-1	59	20	34	-1	42	31	-1	40	46	47	58	60	-1	-1	-1	17	37	-1	-1	-1	-1	-1	-1	-1	7	23	-1	-1	-1	24	64	61	22	-1	3	-1	45	11	-1	57	-1	13	27	56	33	-1	49	12	-1	-1	52	-1	48	-1
59	-1	27	-1	55	44	52	-1	13	40	3	19	-1	-1	-1	63	-1	14	29	28	2	5	33	8	-1	4	-1	-1	-1	-1	48	-1	26	56	-1	-1	-1	-1	-1	54	-1	-1	32	49	62	-1	12	-1	-1	-1	58	23	17	-1	31	7	-1	-1	36	46	9	10	-1	-1
1	61	29	42	-1	-1	-1	-1	-1	-1	-1	-1	24	58	-1	-1	-1	56	11	3	16	-1	17	-1	33	-1	-1	14	45	51	49	46	38	-1	8	34	-1	-1	6	60	48	-1	43	-1	7	-1	30	-1	-1	-1	-1	39	-1	36	12	22	37	57	19	47	-1	13	2	-1
-1	11	-1	12	30	-1	-1	33	-1	-1	-1	27	-1	10	-1	17	44	13	24	34	-1	-1	36	9	-1	-1	29	-1	-1	28	22	53	-1	-1	32	-1	51	41	-1	1	-1	-1	-1	-1	15	6	38	-1	35	5	49	-1	52	-1	18	20	-1	-1	-1	61	23	8	63	39
-1	60	-1	13	-1	38	-1	-1	-1	45	-1	14	21	52	61	41	42	-1	-1	-1	-1	6	-1	37	64	-1	-1	8	36	-1	-1	63	43	20	-1	12	-1	-1	-1	28	-1	-1	-1	2	31	-1	59	-1	30	16	4	9	-1	40	-1	54	-1	24	58	27	17	51	1	-1
-1	-1	-1	-1	-1	19	17	-1	-1	-1	39	-1	44	-1	-1	36	45	-1	-1	7	49	23	51	52	-1	16	24	-1	12	-1	-1	1	-1	14	-1	37	-1	33	-1	-1	-1	13	56	46	20	-1	-1	-1	-1	60	10	-1	-1	3	-1	2	-1	-1	59	26	-1	54	-1	-1
-1	6	3	51	-1	58	-1	49	64	-1	33	56	57	54	-1	43	38	-1	39	-1	-1	-1	12	15	30	50	-1	-1	-1	-1	23	-1	52	-1	53	-1	36	-1	27	-1	17	4	-1	-1	-1	28	-1	-1	-1	19	-1	26	-1	-1	-1	37	16	62	34	-1	14	-1	40	60
25	8	-1	46	39	-1	37	-1	51	-1	9	12	-1	-1	-1	-1	-1	-1	-1	62	1	-1	41	-1	-1	52	56	-1	57	-1	-1	-1	-1	-1	-1	40	-1	-1	21	-1	-1	-1	-1	29	-1	27	-1	60	14	-1	24	64	61	-1	-1	-1	33	-1	-1	-1	18	6	-1	-1
18	-1	-1	20	-1	-1	63	4	49	5	13	-1	-1	14	9	-1	-1	60	-1	-1	54	-1	32	58	39	-1	23	-1	-1	-1	-1	-1	-1	-1	34	-1	-1	36	56	-1	45	50	44	-1	8	2	-1	28	47	-1	-1	10	11	-1	21	-1	-1	46	52	-1	-1	-1	-1	-1
-1	13	-1	28	24	-1	42	6	59	-1	-1	-1	32	64	-1	-1	57	-1	12	-1	7	44	4	14	-1	-1	-1	55	11	-1	-1	9	19	-1	27	-1	22	48	-1	30	-1	-1	-1	-1	46	-1	54	-1	-1	-1	-1	-1	-1	2	38	43	-1	39	-1	-1	-1	-1	41	-1
-1	-1	-1	56	37	41	-1	21	48	39	-1	33	58	-1	4	55	-1	-1	-1	-1	26	-1	-1	-1	12	-1	59	-1	49	-1	-1	36	-1	-1	-1	47	44	35	-1	17	19	29	-1	-1	-1	63	-1	16	-1	-1	-1	-1	6	53	51	-1	-1	-1	11	38	-1	-1	10	7
-1	25	32	-1	2	39	7	44	-1	-1	-1	6	-1	-1	-1	42	-1	16	9	30	23	-1	21	-1	35	63	60	19	-1	15	18	37	-1	-1	-1	3	-1	-1	53	-1	27	-1	48	36	1	59	13	40	-1	-1	-1	31	-1	64	-1	24	50	33	55	-1	-1	-1	-1	5
-1	-1	49	48	38	47	-1	15	-1	11	52	29	-1	-1	-1	-1	24	36	-1	55	6	53	-1	-1	22	-1	-1	-1	62	-1	-1	-1	-1	45	13	9	-1	-1	63	-1	-1	7	-1	21	4	-1	26	-1	37	-1	-1	27	8	-1	-1	3	-1	-1	2	-1	34	-1	-1	-1
33	-1	57	36	58	-1	-1	50	-1	63	16	-1	35	-1	37	21	-1	-1	-1	-1	56	8	11	49	53	-1	44	-1	42	-1	43	-1	59	2	-1	10	-1	-1	-1	41	23	17	39	30	-1	47	14	64	52	-1	15	48	12	7	4	32	18	-1	-1	-1	24	19	-1	62
-1	-1	17	-1	64	59	34	-1	-1	-1	-1	51	62	-1	-1	53	-1	1	-1	2	15	46	28	-1	10	32	-1	21	-1	-1	3	4	-1	-1	-1	-1	-1	-1	-1	-1	-1	37	-1	55	-1	-1	-1	43	-1	-1	39	40	57	63	29	-1	-1	-1	-1	36	-1	-1	16	-1
-1	22	55	43	35	54	12	-1	30	23	-1	36	28	2	24	60	52	-1	63	48	59	34	62	17	56	-1	7	-1	47	-1	45	29	-1	40	-1	-1	-1	-1	-1	39	-1	5	11	42	61	-1	53	3	16	46	-1	-1	18	-1	-1	33	15	-1	-1	-1	51	-1	-1	37
16	-1	-1	-1	46	7	-1	-1	31	3	30	-1	-1	38	-1	34	17	-1	-1	32	37	54	-1	-1	25	-1	47	4	18	-1	-1	-1	-1	24	52	-1	-1	-1	22	-1	20	-1	-1	59	-1	-1	-1	9	-1	-1	-1	21	-1	6	61	11	43	40	50	-1	60	26	-1	-1
-1	-1	-1	-1	-1	-1	11	13	17	-1	-1	50	-1	46	51	-1	-1	58	23	-1	34	-1	-1	24	-1	-1	-1	-1	16	-1	57	64	-1	-1	48	-1	54	-1	20	21	41	-1	19	52	37	-1	15	7	-1	-1	-1	-1	9	-1	-1	-1	10	45	-1	-1	25	5	-1	-1
8	-1	39	14	-1	-1	25	-1	-1	-1	-1	11	43	-1	-1	-1	31	-1	28	-1	-1	-1	3	-1	-1	-1	38	-1	41	7	42	17	40	-1	-1	-1	55	-1	-1	51	-1	63	-1	57	35	18	47	-1	-1	34	5	-1	-1	-1	-1	58	46	-1	23	-1	-1	1	-1	-1
-1	33	-1	-1	-1	20	41	12	-1	-1	32	-1	-1	37	8	-1	-1	-1	-1	64	-1	-1	-1	59	-1	-1	43	35	46	-1	-1	-1	53	-1	15	50	38	3	-1	-1	16	24	49	-1	-1	-1	22	-1	-1	40	-1	44	7	-1	25	-1	-1	-1	-1	48	31	36	-1	-1
50	-1	23	-1	-1	52	31	-1	-1	35	25	58	-1	55	39	9	-1	-1	48	11	-1	29	-1	-1	13	-1	-1	-1	-1	-1	-1	-1	17	30	19	41	61	63	-1	36	60	32	34	-1	42	-1	-1	-1	53	28	37	22	43	-1	-1	12	-1	38	-1	16	57	-1	7	44
60	37	58	-1	-1	-1	28	-1	5	-1	41	-1	16	18	-1	-1	49	-1	-1	-1	42	57	-1	21	19	-1	22	-1	-1	-1	32	-1	-1	10	25	-1	27	-1	-1	44	-1	-1	6	4	36	-1	-1	-1	23	15	48	-1	-1	29	-1	-1	-1	47	-1	-1	8	52	-1	-1
47	-1	36	-1	-1	34	30	-1	27	-1	-1	-1	56	53	19	-1	25	-1	-1	38	22	7	8	16	50	-1	49	60	37	-1	58	-1	-1	46	12	-1	13	-1	-1	9	62	-1	-1	61	-1	-1	-1	26	-1	24	31	52	1	10	57	39	-1	15	-1	18	-1	-1	11	-1
-1	35	-1	-1	3	-1	45	-1	-1	48	-1	49	14	33	60	-1	9	-1	-1	15	-1	36	-1	56	20	-1	62	-1	23	11	6	-1	-1	-1	31	-1	18	7	47	-1	43	30	28	53	29	-1	-1	44	-1	-1	-1	-1	-1	16	46	-1	-1	-1	-1	41	-1	-1	-1	22
-1	-1	21	60	62	42	8	48	-1	-1	5	22	39	-1	-1	7	32	-1	6	31	-1	-1	19	41	55	-1	9	-1	35	18	15	-1	27	-1	49	-1	63	-1	51	-1	61	28	33	45	43	20	57	1	50	26	40	-1	-1	44	-1	-1	-1	-1	30	54	-1	-1	-1	-1
15	17	-1	39	27	-1	-1	-1	-1	-1	47	52	4	-1	53	-1	35	2	8	13	60	-1	-1	22	-1	-1	-1	63	-1	59	-1	5	57	-1	-1	44	-1	-1	34	38	50	9	-1	24	-1	7	3	-1	-1	-1	-1	-1	-1	25	-1	-1	12	-1	-1	19	62	64	58	32
20	-1	-1	37	-1	-1	43	-1	1	-1	-1	10	54	25	-1	46	-1	42	61	-1	27	16	58	29	47	38	51	26	-1	-1	11	40	-1	-1	55	-1	-1	-1	-1	-1	-1	-1	-1	-1	39	-1	5	22	13	6	-1	34	-1	-1	-1	-1	63	49	-1	-1	7	-1	-1	-1
24	-1	-1	-1	57	-1	-1	3	37	-1	27	-1	-1	49	44	40	-1	-1	14	-1	30	11	64	38	23	-1	58	43	29	21	-1	12	50	41	56	28	46	25	-1	32	-1	60	2	47	-1	10	-1	62	-1	18	1	-1	-1	-1	55	42	26	34	45	22	59	-1	4	-1
-1	-1	-1	-1	63	-1	51	2	42	-1	-1	26	-1	60	-1	57	1	49	-1	-1	46	45	-1	-1	-1	37	27	33	-1	4	-1	13	-1	36	-1	5	-1	-1	-1	10	-1	54	25	-1	56	17	-1	-1	19	-1	8	24	-1	59	3	-1	-1	20	-1	-1	-1	-1	-1	40
-1	56	-1	10	26	12	29	-1	38	19	-1	-1	-1	9	21	30	15	-1	36	-1	40	51	-1	57	-1	22	45	1	2	6	-1	-1	-1	48	-1	59	39	53	17	43	37	44	42	58	16	-1	-1	-1	-1	35	-1	60	-1	-1	-1	-1	8	-1	-1	-1	33	-1	-1	24
53	-1	-1	-1	47	33	46	-1	41	61	58	63	-1	13	3	45	59	39	4	24	-1	43	55	-1	-1	36	-1	-1	8	-1	60	34	-1	-1	-1	15	6	26	54	64	29	35	-1	-1	51	19	-1	-1	-1	37	-1	32	16	27	-1	-1	5	44	-1	-1	42	-1	-1	-1
41	9	22	58	-1	23	49	19	-1	-1	-1	-1	-1	-1	15	-1	-1	44	-1	-1	5	-1	53	-1	-1	-1	-1	-1	54	20	10	56	14	-1	35	60	29	47	-1	7	-1	-1	4	-1	27	48	34	18	38	-1	-1	-1	21	-1	45	-1	57	-1	6	-1	-1	-1	-1	-1
57	-1	52	-1	33	35	-1	23	-1	43	-1	-1	29	62	-1	-1	53	-1	64	27	24	-1	7	6	-1	51	-1	-1	20	17	4	15	-1	-1	40	36	-1	37	44	-1	-1	-1	21	-1	-1	-1	-1	47	-1	-1	16	-1	56	28	-1	1	34	41	-1	-1	63	-1	46	38
9	24	48	3	-1	-1	64	-1	-1	7	-1	59	-1	-1	55	-1	51	-1	-1	42	-1	39	-1	-1	-1	-1	-1	-1	38	32	13	33	28	-1	21	31	-1	8	-1	-1	40	22	54	-1	49	-1	56	-1	36	10	-1	35	-1	12	-1	44	53	29	-1	-1	58	-1	-1	-1
-1	-1	13	-1	-1	-1	21	60	-1	-1	-1	35	46	47	-1	25	50	5	58	-1	17	30	23	-1	45	-1	-1	10	19	62	36	-1	54	-1	41	-1	34	6	43	-1	2	27	-1	28	-1	8	7	-1	-1	-1	-1	3	-1	-1	15	57	11	52	-1	-1	55	59	14	-1
51	46	41	31	56	-1	-1	37	-1	17	14	45	33	-1	27	22	-1	26	-1	-1	-1	35	10	-1	57	59	-1	-1	64	-1	7	-1	62	-1	-1	-1	-1	-1	13	25	36	19	55	16	11	29	23	-1	49	-1	43	-1	50	-1	-1	60	28	-1	-1	20	2	-1	-1	-1
14	-1	-1	26	8	-1	-1	43	-1	31	44	18	-1	19	-1	-1	-1	41	-1	-1	55	-1	20	-1	-1	9	-1	28	56	-1	-1	-1	35	-1	29	16	-1	-1	23	53	13	-1	-1	-1	33	38	39	-1	-1	-1	-1	54	24	-1	7	-1	-1	48	-1	-1	-1	-1	-1	47
27	38	-1	-1	18	-1	-1	36	53	-1	10	-1	-1	-1	26	-1	28	47	16	-1	-1	-1	-1	3	-1	-1	46	-1	-1	-1	44	-1	7	-1	-1	-1	-1	-1	-1	-1	-1	-1	-1	17	-1	-1	-1	-1	-1	4	-1	37	14	51	-1	-1	25	21	35	-1	-1	40	62	-1
28	-1	-1	-1	19	-1	47	11	56	9	-1	-1	-1	21	36	-1	-1	63	-1	-1	-1	-1	-1	-1	41	-1	-1	16	22	-1	26	-1	-1	3	30	-1	4	20	46	45	-1	-1	5	-1	-1	-1	-1	51	-1	-1	52	6	59	17	8	-1	24	10	-1	37	-1	33	43	-1
-1	-1	20	-1	-1	10	-1	-1	-1	6	-1	39	-1	-1	11	13	8	32	56	-1	-1	-1	-1	-1	-1	35	14	-1	34	-1	54	-1	51	59	5	-1	1	15	-1	-1	-1	52	64	44	60	43	-1	-1	-1	31	53	-1	62	18	47	55	-1	-1	57	-1	-1	-1	-1	50
54	-1	2	-1	12	40	-1	64	63	37	53	-1	-1	50	7	1	62	-1	60	26	-1	-1	-1	23	11	43	13	48	5	-1	21	-1	-1	-1	-1	19	-1	-1	10	15	-1	55	-1	18	47	-1	27	-1	-1	-1	33	8	-1	61	6	-1	35	-1	-1	-1	38	45	-1	-1
29	7	-1	-1	20	32	53	-1	12	46	-1	-1	30	-1	41	38	-1	-1	-1	-1	25	-1	16	-1	44	-1	-1	-1	-1	-1	-1	22	-1	18	9	-1	49	13	-1	52	59	15	-1	26	-1	-1	61	-1	-1	23	-1	4	64	-1	-1	10	-1	60	-1	33	54	55	24	48
21	-1	-1	-1	16	6	-1	-1	60	-1	61	5	-1	-1	-1	-1	-1	-1	-1	-1	18	58	59	13	4	45	-1	64	-1	-1	-1	51	-1	-1	-1	30	20	-1	55	-1	-1	33	-1	-1	-1	54	-1	-1	34	38	29	57	35	1	-1	-1	36	11	-1	15	-1	-1	49	-1
-1	-1	-1	33	28	-1	-1	1	58	-1	-1	57	-1	39	49	11	-1	24	-1	-1	32	-1	-1	53	60	-1	-1	17	-1	-1	-1	-1	-1	-1	16	7	-1	34	3	47	-1	-1	37	40	-1	-1	41	45	21	43	-1	-1	30	15	-1	5	61	-1	51	-1	-1	-1	12	13
-1	-1	37	-1	-1	43	-1	9	35	-1	-1	-1	-1	27	-1	8	36	-1	49	-1	50	17	-1	-1	-1	26	-1	7	-1	-1	41	42	58	32	-1	51	33	-1	45	40	-1	-1	-1	60	28	-1	-1	-1	-1	12	-1	11	48	62	24	16	-1	-1	-1	-1	19	23	-1	30
31	-1	-1	47	11	30	-1	58	-1	26	-1	44	-1	-1	-1	-1	-1	51	21	-1	-1	15	-1	46	-1	-1	61	52	32	-1	33	-1	-1	4	2	63	-1	-1	-1	12	34	16	35	20	-1	-1	24	50	40	7	56	53	19	13	54	-1	59	43	-1	17	3	25	8	-1
-1	-1	62	38	45	46	18	35	6	16	34	-1	20	48	31	-1	5	11	-1	8	-1	42	-1	19	-1	-1	-1	-1	-1	-1	24	-1	-1	-1	60	61	43	54	-1	59	-1	-1	-1	1	2	-1	9	32	-1	58	-1	55	3	-1	22	-1	-1	-1	26	63	40	-1	52	64
-1	3	-1	-1	-1	27	57	-1	-1	10	15	43	-1	42	-1	33	-1	-1	-1	-1	-1	55	29	12	-1	49	-1	18	-1	-1	53	-1	23	-1	28	8	62	44	35	50	-1	-1	-1	31	6	64	48	-1	60	-1	-1	41	-1	20	32	-1	-1	16	-1	-1	4	2	37	58
-1	43	-1	-1	-1	-1	-1	27	7	56	-1	54	-1	30	-1	4	22	17	5	23	-1	-1	39	-1	37	-1	-1	29	51	41	-1	-1	34	-1	45	-1	-1	58	-1	-1	-1	-1	-1	-1	-1	16	2	59	15	-1	35	-1	-1	-1	10	-1	20	-1	32	-1	-1	-1	-1	42
-1	-1	44	-1	13	56	-1	59	-1	-1	22	34	-1	-1	-1	58	60	8	-1	18	-1	-1	-1	-1	-1	-1	-1	-1	-1	-1	-1	26	-1	28	4	20	40	-1	-1	3	-1	21	-1	39	50	-1	32	15	43	2	-1	-1	-1	24	19	53	54	35	-1	-1	10	-1	-1	52
-1	-1	-1	-1	34	-1	-1	30	-1	-1	60	-1	10	1	50	-1	-1	29	19	43	53	-1	-1	45	-1	21	-1	-1	13	23	-1	25	-1	5	-1	-1	56	17	42	18	4	31	-1	7	48	-1	40	-1	12	20	-1	16	-1	-1	-1	46	-1	51	-1	14	22	38	-1	-1
-1	57	33	50	5	-1	38	52	-1	-1	-1	-1	-1	-1	-1	12	7	34	-1	-1	-1	28	49	47	43	46	10	-1	-1	-1	2	35	-1	-1	26	-1	-1	-1	-1	-1	55	-1	-1	-1	14	1	-1	20	-1	8	23	56	-1	-1	-1	-1	19	-1	-1	-1	21	53	-1	4
17	-1	-1	-1	-1	55	-1	-1	-1	-1	-1	-1	-1	5	13	39	6	-1	-1	-1	-1	37	38	32	-1	42	-1	20	-1	1	63	45	15	-1	46	53	-1	57	62	-1	30	43	-1	27	-1	12	-1	34	-1	3	-1	-1	25	22	64	-1	-1	-1	-1	9	-1	-1	-1	49
-1	36	28	4	-1	31	6	7	19	21	-1	9	-1	-1	-1	-1	-1	15	3	-1	-1	61	14	48	54	5	55	-1	40	-1	50	11	-1	63	10	38	2	43	-1	35	-1	47	-1	51	13	-1	17	58	-1	29	41	62	-1	30	39	-1	23	-1	-1	-1	12	-1	34	56
58	-1	46	23	-1	-1	35	51	32	15	36	-1	-1	-1	-1	14	-1	-1	-1	-1	4	52	2	50	24	-1	57	56	6	12	-1	-1	-1	47	61	-1	-1	1	9	-1	-1	10	38	-1	45	25	42	-1	-1	-1	34	-1	-1	-1	-1	-1	60	-1	-1	-1	44	7	-1	-1
-1	15	-1	24	32	3	20	45	55	-1	35	-1	-1	-1	-1	-1	11	21	31	-1	41	-1	9	42	48	-1	-1	44	-1	34	64	-1	-1	-1	59	29	-1	-1	-1	13	33	56	18	-1	-1	49	28	-1	61	-1	-1	-1	51	-1	-1	-1	-1	-1	-1	8	-1	43	-1	57
64 
43 5 34 7
40 52 16 38
22 7 33 32
6 49 8 6
19 31 22 37
14 49 50 26
2 39 37 19
44 27 19 3
36 20 44 21
39 59 11 26
30 33 60 60
55 42 17 62
25 13 32 53
21 32 28 21
25 4 8 52
3 64 18 27
58 27 36 12
34 9 60 11
24 11 6 47
11 27 49 32
35 41 1 48
46 20 10 36
35 63 3 44
33 28 2 9
12 36 52 52
20 40 51 2
24 63 47 49
11 15 16 6
61 5 53 57
19 52 21 31
34 34 1 31
31 57 16 14
1 15 43 49
33 15 5 28
52 30 11 16
50 48 64 33
34 23 27 35
20 10 43 53
32 61 13 35
48 1 50 31
20 22 59 57
17 40 25 49
21 14 14 3
53 49 15 32
15 1 29 46
58 41 20 1
15 43 20 63
41 27 31 42
58 30 57 6
4 54 5 22
6 57 49 2
28 19 49 50
63 2 62 30
61 18 64 54
32 46 47 26
18 62 56 17
45 9 32 4
28 57 47 36
17 64 12 25
23 38 54 3
17 6 23 39
11 51 29 59
53 24 58 2
62 21 57 61
